#===============================================================================
# Created using the Atomic Simulation Environment (ASE)

# Wed Feb 18 14:42:11 2026

#=======================================================
lattice_vector 4.1210000000000004 0.0000000000000000 0.0000000000000000 
lattice_vector 0.0000000000000000 4.1210000000000004 0.0000000000000000 
lattice_vector 0.0000000000000000 0.0000000000000000 4.1210000000000004 
atom 0.0100000000000000 0.0000000000000000 0.0000000000000000 Al
atom 0.0000000000000000 2.0604999999999998 2.0604999999999998 Al
atom 2.0604999999999998 0.0000000000000000 2.0604999999999998 Al
atom 2.0604999999999998 2.0604999999999998 0.0000000000000000 Al
